40
    63    61    47    77    25    14    63    13    33    64     7    18    98    57    45     4    60    94    17    86    89    30    43    81    80    69    23    10    59    73    31    97    78    55    23    70    18    80    31    57
     4     6     1     1     4     4     8     3     7     6     9     7     2     5     8     9     7     4     4     2     9     7     8     3     2     9     5     9     9     7     4     7     1     7     7     6     8     7     9     7
   154   159    70    34    60   142   172   127     0     0   163     2     0   144     0     0   189   123    95     0     0     0    34     0   177     0   187     0     0    13    85     0     0     0   161    81     0     0   188    47
